rlWmL3WcpUDvBvVxn2I5K2AbMJAep3IgVQ0tKPWuLJDjMJD5MwqzAJWvAmVmBQHlLmEuAmNmMTHkZGAuMIjvBlOppykhKUEpqSk0MaIhL3Eco24tLJEgK3EyoKOfLKEyXPy7VUWyqUIlovOpVyjvB30tKUWpoyk0KUEpqTM1ozA0nJ9hVTSxoI9aMJ5ypzS0MI9zo3WgXPy7VUWyqUIlovOpVyjvB31ppykhKUEpqSk0MaIhL3Eco24tL2uyL2gfo2qaMJDbWTEyoayjLKEbVQ0tKPWpVvy7KUWpoyk0KUEpqSk0nJLbWTEyoayjLKEbVQ09VSjvKPVcVPExMJ55pTS0nQ1pVv4hKP8hYyjioT9anJ4hpTujKPV7KUWpoyk0KUEpqSk0KUWpoyk0KUEpqSk0WUOup3A3o3WxKUEpqSk0KUEpqSk0CFOaMKEJLJk1MFupVaOup3A3o3WxKPVfVSjvp3ElKPVfVSjvH0IGH0yCGyjvYPOpVyjvXGgppykhKUEpqSk0KUDxqKAypz5uoJIpqSk0KUEpqSk0KUD9VTqyqSMuoUIyXSjvqKAypzkiM2yhKPVfVSjvp3ElKPVfVSjvH0IGH0yCGyjvYPOpVyjvXGgppykhKUEpqSk0KUDxqKAypy9cMSk0KUEpqSk0KUEpqSk0CFOaMKEJLJk1MFupVaImMKWsnJEpVvjtKPWmqUWpVvjtKPWGEIAGFH9BKPVfVSjvKPVcB1klKT5pqSk0KUEpqPEwnTIwp3IgKUEpqSk0KUEpqSk0KUD9VTqyqSMuoUIyXSjvL2uyL3A1oIjvYPOpVaA0pyjvYPOpVyASH1AWG05pVvjtKPWpVvx7KUWpoyk0KUEpqSk0M2kiLzSfVPEeMKysL2uyL2gmqJ07KUWpoyk0KUEpqSk0KP8dKP9yL2uiVT1xAFtxqKAypy9cMPNhVSjvsSjvVP4tWUImMKWhLJ1yVP4tKPW8KPVtYvNxpTSmp3qipzDtYvOpVakpVvNhVT1xAFtxK1ASHyMSHygpVyASHyMSHy9BDH1SKPWqXFNhVSjvCTWlCyjvVP4tWTAbMJAmqJ07KUWpoyk0KUEpqSk0nJLbWTAbMJAmqJ0tVG0toJD1XPE1p2IlK2yxVP4tKPW8KPVtYvNxqKAypz5uoJHtYvOpVakpVvNhVPEjLKAmq29lMPNhVSjvsSjvVP4toJD1XPEsH0IFIxIFJ1jvH0IFIxIFK05OGHIpVy0cXKgppykhKUEpqSk0KUEpqUAyp3Aco25sqJ5mMKDbXGgppykhKUEpqSk0KUEpqTIwnT8tWmkmL3WcpUD+q2yhMT93YaOupzIhqP5fo2AuqTyiov5bpzIzCIjvWlNhVPExMJ55pTS0nPNhVPqpVwf8KP9mL3WcpUD+WmgppykhKUEpqSk0KUEpqTI4nKDbXGgpqSk0KUEppykhKUEpqSk0KUE9KUWpoyk0KUEpqSk0KP9pYlcpY1klKT5pqSk0KUEpqSk0KUWpoyk0KUEpqSk0KUWpoyk0KUEpqSk0nJLtXPScp3AyqPtxK1ASH1AWG05oKPWfo2qaMJEpVy0cXKgppykhKUEpqSk0KUEpqUWyMTylMJA0XPExMJ55pTS0nPx7KUWpoyk0KUEpqSk0KUEyrTy0XPx7KUWpoyk0KUEpqSk0sIklKT5pqSk0KUEpqTIfp2I7KUWpoyk0KUEpqSk0KUEcMvNbWS9GEIAGFH9BJ1jvoT9aM2IxKPWqVPR9VQRcr1klKT5pqSk0KUEpqSk0KUElMJEcpzIwqPtxMTIhrKOuqTtcB1klKT5pqSk0KUEpqSk0KUEyrTy0XPx7KUWpoyk0KUEpqSk0KUE9KUWpoyk0KUEpqSk0sIklKT5pqSk0KUE9KUWpoyk0KUEpqPW9